NAME          
ROWS
 N  OBJ
 L  c1
 L  c2
COLUMNS
    MARKER    'MARKER'                 'INTORG'
    x[1]      c1        207
    x[1]      c2        35
    x[1]      OBJ       -474
    x[2]      c1        677
    x[2]      c2        250
    x[2]      OBJ       -23
    x[3]      c1        370
    x[3]      c2        446
    x[3]      OBJ       -635
    x[4]      c1        631
    x[4]      c2        367
    x[4]      OBJ       -831
    x[5]      c1        835
    x[5]      c2        445
    x[5]      OBJ       -690
    x[6]      c1        704
    x[6]      c2        243
    x[6]      OBJ       -14
    x[7]      c1        748
    x[7]      c2        129
    x[7]      OBJ       -41
    x[8]      c1        949
    x[8]      c2        991
    x[8]      OBJ       -611
    x[9]      c1        575
    x[9]      c2        82
    x[9]      OBJ       -875
    x[10]     c1        584
    x[10]     c2        805
    x[10]     OBJ       -869
    x[11]     c1        413
    x[11]     c2        360
    x[11]     OBJ       -825
    x[12]     c1        280
    x[12]     c2        533
    x[12]     OBJ       -553
    x[13]     c1        501
    x[13]     c2        692
    x[13]     OBJ       -913
    x[14]     c1        990
    x[14]     c2        479
    x[14]     OBJ       -141
    x[15]     c1        443
    x[15]     c2        99
    x[15]     OBJ       -393
    x[16]     c1        767
    x[16]     c2        614
    x[16]     OBJ       -548
    x[17]     c1        691
    x[17]     c2        440
    x[17]     OBJ       -918
    x[18]     c1        508
    x[18]     c2        785
    x[18]     OBJ       -50
    x[19]     c1        644
    x[19]     c2        188
    x[19]     OBJ       -544
    x[20]     c1        152
    x[20]     c2        507
    x[20]     OBJ       -133
    x[21]     c1        547
    x[21]     c2        783
    x[21]     OBJ       -891
    x[22]     c1        672
    x[22]     c2        865
    x[22]     OBJ       -585
    x[23]     c1        602
    x[23]     c2        73
    x[23]     OBJ       -217
    x[24]     c1        998
    x[24]     c2        552
    x[24]     OBJ       -603
    x[25]     c1        908
    x[25]     c2        675
    x[25]     OBJ       -875
    x[26]     c1        320
    x[26]     c2        882
    x[26]     OBJ       -60
    x[27]     c1        886
    x[27]     c2        683
    x[27]     OBJ       -378
    x[28]     c1        839
    x[28]     c2        133
    x[28]     OBJ       -369
    x[29]     c1        388
    x[29]     c2        946
    x[29]     OBJ       -798
    x[30]     c1        593
    x[30]     c2        720
    x[30]     OBJ       -431
RHS
    rhs       c1        9211
    rhs       c2        7401
RANGES
BOUNDS
 BV bounds    x[1]
 BV bounds    x[2]
 BV bounds    x[3]
 BV bounds    x[4]
 BV bounds    x[5]
 BV bounds    x[6]
 BV bounds    x[7]
 BV bounds    x[8]
 BV bounds    x[9]
 BV bounds    x[10]
 BV bounds    x[11]
 BV bounds    x[12]
 BV bounds    x[13]
 BV bounds    x[14]
 BV bounds    x[15]
 BV bounds    x[16]
 BV bounds    x[17]
 BV bounds    x[18]
 BV bounds    x[19]
 BV bounds    x[20]
 BV bounds    x[21]
 BV bounds    x[22]
 BV bounds    x[23]
 BV bounds    x[24]
 BV bounds    x[25]
 BV bounds    x[26]
 BV bounds    x[27]
 BV bounds    x[28]
 BV bounds    x[29]
 BV bounds    x[30]
ENDATA
